0 0 0 0
0 1 0 0
0 2 0 0
0 3 0 4
0 4 0 3
0 5 0 7
0 6 0 14
0 7 1 29
0 8 0 14
0 9 0 16
0 10 0 5
0 11 1 9
0 12 2 16
0 13 0 16
0 14 1 18
0 15 0 6
0 16 0 18
0 17 1 10
0 18 2 19
0 19 0 30
0 20 0 35
0 21 0 19
0 22 0 27
0 23 0 29
0 24 1 20
0 25 0 36
0 26 0 37
0 27 0 29
0 28 1 41
0 29 0 40
0 30 1 30
0 31 0 42
